000 000 000 000 000 000 000 000 -99 -99 -99 -99 -99 000 000 000 000 -99 -99 -99 -99 -99 -99 -99 000 000 000 000 000 -99 -99
000 000 000 000 000 000 000 000 000 -99 -99 -99 -99 000 000 000 -99 -99 -99 000 -99 000 -99 -99 000 000 -99 000 000 -99 -99
-99 000 000 000 000 000 000 000 000 -99 -99 -99 -99 -99 000 000 -99 -99 -99 -99 -99 000 000 -99 000 000 -99 -99 -99 -99 -99
007 000 000 000 000 000 000 000 000 -99 -99 -99 000 -99 000 -99 -99 -99 -99 000 000 -99 000 000 000 000 -99 -99 -99 -99 -99
010 000 000 000 000 000 000 000 000 -99 -99 -99 000 000 000 000 -99 -99 -99 -99 000 000 000 -99 000 -99 -99 -99 -99 -99 -99
007 000 000 000 000 000 000 000 000 -99 -99 -99 000 000 000 000 -99 -99 -99 -99 000 000 000 000 000 -99 -99 -99 -99 -99 000
000 000 000 000 000 000 000 000 -99 -99 -99 -99 000 000 000 000 -99 -99 -99 -99 000 000 000 -99 -99 -99 -99 -99 -99 -99 -99
000 000 000 000 000 000 -99 -99 000 000 000 -99 -99 000 000 000 000 000 -99 -99 000 000 000 -99 -99 -99 -99 -99 -99 -99 -99
000 000 000 000 000 000 -99 000 000 000 000 000 -99 -99 -99 000 000 000 000 000 000 -99 -99 -99 -99 -99 -99 -99 -99 -99 -99
000 000 000 000 000 000 -99 -99 000 000 000 000 -99 -99 -99 -99 000 000 000 000 000 000 -99 000 000 -99 -99 -99 -99 000 000
000 000 -99 000 000 000 000 000 000 000 000 000 000 -99 -99 -99 000 000 000 000 000 000 000 000 000 -99 -99 -99 -99 000 000
000 000 000 000 000 000 000 000 -99 000 000 000 -99 -99 -99 -99 000 000 000 000 000 000 000 000 000 -99 -99 -99 -99 000 000
000 000 000 000 000 000 000 000 000 000 000 000 000 -99 -99 000 000 000 000 000 000 000 -99 000 000 000 000 -99 -99 -99 000
000 000 000 000 000 000 000 000 000 -99 000 000 000 000 -99 000 000 000 000 000 000 000 -99 000 000 000 000 -99 -99 -99 000
000 000 000 000 000 000 000 -99 -99 -99 -99 -99 000 000 -99 000 000 -99 -99 -99 -99 -99 -99 000 000 000 000 000 -99 -99 000
000 000 000 000 000 000 000 000 000 -99 -99 -99 -99 -99 -99 -99 000 000 -99 -99 -99 -99 -99 000 000 000 000 000 -99 000 -99
000 000 000 000 000 000 000 000 000 -99 -99 -99 -99 000 -99 -99 001 000 -99 -99 -99 -99 000 000 000 000 000 000 -99 -99 000
000 000 000 000 -99 000 000 000 000 000 -99 -99 -99 000 000 -99 008 000 000 -99 -99 000 000 -99 000 000 -99 000 -99 000 000
000 000 000 -99 -99 -99 000 000 000 000 -99 000 -99 000 000 -99 004 000 000 -99 000 000 000 -99 -99 -99 -99 -99 -99 000 000
000 000 000 000 -99 -99 000 000 000 000 -99 -99 -99 000 000 000 001 000 000 -99 000 000 000 -99 -99 -99 -99 -99 -99 000 000
000 000 000 000 000 000 000 000 000 000 -99 -99 -99 000 000 000 000 000 000 000 000 000 000 -99 -99 -99 -99 -99 -99 -99 -99
000 000 000 000 000 000 000 000 000 000 -99 -99 -99 000 000 000 000 000 000 000 000 000 000 -99 -99 -99 -99 -99 -99 -99 -99
000 000 000 000 000 000 000 000 000 000 -99 -99 000 000 000 -99 000 000 000 000 000 000 000 -99 -99 -99 -99 -99 -99 -99 -99
000 000 000 000 000 000 000 000 000 000 -99 -99 000 000 -99 000 000 000 000 000 000 000 000 -99 -99 -99 -99 -99 -99 -99 -99
000 000 000 000 000 000 000 000 000 000 -99 -99 000 000 -99 000 000 000 000 000 000 000 000 -99 -99 -99 -99 -99 -99 -99 -99
000 000 000 000 000 000 000 000 000 000 -99 -99 -99 000 000 000 000 000 000 000 000 -99 -99 -99 -99 -99 -99 -99 -99 -99 -99
000 000 000 000 000 000 000 000 000 000 -99 -99 -99 000 000 000 000 000 000 000 000 000 000 -99 -99 -99 -99 -99 -99 -99 -99
000 000 000 000 000 000 000 000 000 -99 -99 -99 -99 000 000 000 000 000 000 000 000 000 000 -99 -99 -99 -99 -99 -99 -99 -99
000 000 000 000 000 000 000 000 000 -99 -99 -99 -99 -99 000 000 000 000 000 000 000 000 -99 -99 -99 -99 -99 -99 -99 -99 -99
000 000 000 000 000 000 -99 000 000 -99 -99 -99 -99 000 000 000 000 000 000 000 000 000 -99 -99 -99 -99 -99 -99 -99 -99 -99
000 000 000 000 000 -99 000 000 000 -99 -99 -99 -99 000 000 000 000 000 000 000 000 000 -99 -99 -99 -99 -99 -99 -99 -99 -99
000 000 000 000 000 -99 000 000 000 -99 -99 -99 -99 -99 -99 000 000 000 000 -99 -99 000 -99 000 000 -99 -99 -99 -99 -99 -99
000 000 000 000 000 000 000 000 000 -99 -99 -99 -99 -99 -99 000 000 000 000 -99 -99 000 000 000 000 -99 -99 000 000 -99 -99
000 000 000 000 000 000 000 000 000 000 -99 -99 -99 000 000 000 000 000 000 000 -99 -99 000 000 000 000 000 000 000 -99 -99
000 000 000 000 000 000 000 000 000 000 000 -99 -99 000 000 000 000 000 -99 -99 -99 -99 -99 000 000 000 000 000 000 -99 -99
000 000 000 000 000 000 000 000 000 000 -99 -99 000 000 000 000 000 000 000 -99 000 000 -99 000 000 000 000 000 000 -99 -99
000 000 000 000 000 000 000 000 000 000 -99 -99 000 000 000 000 000 000 000 -99 -99 000 000 000 000 000 000 000 000 -99 -99
000 000 000 000 000 -99 000 000 000 -99 -99 -99 000 000 000 000 000 000 000 -99 000 000 -99 000 000 -99 000 000 -99 -99 -99
-99 000 000 000 000 -99 -99 000 -99 -99 -99 -99 -99 000 000 000 000 000 -99 -99 000 000 000 000 000 -99 000 000 -99 -99 -99
000 000 000 000 -99 -99 -99 -99 -99 -99 000 000 000 000 000 000 000 -99 -99 -99 000 -99 000 000 -99 000 000 -99 -99 -99 -99
000 000 000 000 -99 -99 -99 -99 -99 -99 000 000 000 000 000 000 -99 -99 000 000 000 -99 -99 000 000 000 000 -99 -99 -99 -99
000 000 000 -99 -99 000 -99 -99 -99 000 000 000 -99 -99 000 000 -99 -99 000 000 000 -99 -99 -99 000 -99 -99 -99 -99 -99 000
-99 -99 -99 -99 000 000 000 -99 -99 000 000 000 000 -99 000 000 -99 -99 000 000 -99 -99 -99 -99 000 000 -99 -99 -99 -99 000
-99 -99 -99 -99 -99 000 -99 -99 -99 000 000 000 000 000 000 000 -99 000 000 000 000 -99 -99 -99 000 000 -99 -99 -99 -99 000
-99 -99 -99 -99 -99 -99 -99 -99 -99 000 000 000 000 000 000 000 -99 000 000 -99 000 -99 -99 000 000 000 000 -99 -99 -99 -99
-99 -99 -99 -99 -99 -99 -99 -99 -99 -99 000 000 000 000 000 -99 -99 000 000 -99 000 -99 -99 000 000 000 000 -99 -99 -99 -99
-99 -99 -99 -99 -99 -99 -99 -99 -99 -99 -99 000 000 000 000 -99 -99 -99 000 000 000 000 000 000 000 000 000 -99 -99 -99 -99
-99 -99 -99 -99 -99 -99 -99 -99 -99 -99 -99 -99 000 -99 -99 -99 -99 000 000 000 000 000 000 000 000 000 -99 -99 -99 -99 -99
-99 -99 -99 -99 -99 -99 -99 -99 -99 -99 -99 -99 -99 -99 -99 -99 -99 000 000 000 000 000 -99 000 000 000 -99 -99 -99 -99 -99
-99 -99 -99 -99 -99 -99 -99 -99 -99 -99 000 000 -99 -99 -99 -99 -99 000 -99 000 000 -99 -99 -99 000 -99 -99 -99 -99 -99 -99
-99 -99 -99 -99 -99 -99 -99 -99 -99 000 000 -99 -99 -99 -99 -99 -99 -99 000 000 000 000 -99 -99 -99 -99 -99 -99 -99 -99 -99
-99 -99 -99 -99 -99 -99 -99 -99 -99 -99 -99 -99 -99 -99 -99 -99 -99 -99 -99 000 -99 -99 -99 -99 -99 -99 -99 -99 -99 -99 -99
-99 -99 -99 -99 -99 -99 -99 -99 -99 -99 -99 -99 -99 -99 -99 -99 -99 -99 -99 000 -99 -99 -99 -99 -99 -99 -99 -99 -99 -99 -99
-99 -99 -99 -99 -99 -99 -99 -99 -99 -99 -99 -99 -99 -99 -99 -99 -99 -99 -99 -99 -99 -99 -99 -99 -99 -99 -99 -99 -99 -99 -99
-99 -99 -99 -99 -99 -99 -99 -99 -99 -99 -99 -99 -99 -99 -99 -99 -99 -99 -99 -99 -99 -99 -99 -99 -99 -99 -99 -99 -99 -99 -99
